NAME lp_typeD_4061
OBJSENSE MAX
ROWS
 N  OBJ
 L  c0      
 L  c1      
 G  c2      
 G  c3      
 L  c_key_upper
 G  c_key_lower
 G  _chain_constr_1
 G  _chain_constr_2
 G  _chain_constr_3
 G  _chain_cycle
COLUMNS
    x0        OBJ       9.3895809054203239e-01
    x0        c0        1.6016838276132570e+00
    x0        c1        5.8499100349373634e-01
    x0        c2        1.2218622118807954e+00
    x0        c3        9.2613416134822146e-01
    x0        c_key_upper  1.8521620085232042e+00
    x0        c_key_lower  1.8521620085232042e+00
    x1        OBJ       1.0954670815942635e+00
    x1        c0        1.5096246706572418e+00
    x1        c1        5.8380733591869094e-01
    x1        c2        1.8292001378498464e+00
    x1        c3        1.0213886743200771e+00
    x1        c_key_upper  1.9986053905153911e+00
    x1        c_key_lower  1.9986053905153911e+00
    x2        OBJ       6.0227681500476737e-01
    x2        c0        5.5758606556341639e-01
    x2        c1        9.7423595993874623e-01
    x2        c2        7.9723732709716066e-01
    x2        c3        0.542543803008245
    x2        c_key_upper  1.7157047898985904e+00
    x2        c_key_lower  1.7157047898985904e+00
    x3        OBJ       5.1302349983914131e-01
    x3        c0        1.5627805655981351e+00
    x3        c1        1.4716013131562296e+00
    x3        c2        1.2030577012711319e+00
    x3        c3        6.1810815471980862e-01
    x3        c_key_upper  1.3607061587243394e+00
    x3        c_key_lower  1.3607061587243394e+00
    x4        OBJ       7.3767427975107136e-01
    x4        c0        1.1122923497251798e+00
    x4        c1        1.2992862957676041e+00
    x4        c2        9.9938757172983284e-01
    x4        c3        1.0177980306637839e+00
    x4        c_key_upper  1.5132665060326360e+00
    x4        c_key_lower  1.5132665060326360e+00
    _chain_var_0  _chain_constr_1  -1
    _chain_var_0  _chain_cycle  1
    _chain_var_1  _chain_constr_1  1
    _chain_var_1  _chain_constr_2  -1
    _chain_var_2  _chain_constr_2  1
    _chain_var_2  _chain_constr_3  -1
    _chain_var_3  _chain_constr_3  1
    _chain_var_3  _chain_cycle  -1
RHS
    RHS1      c0        2.9059422863693069e+01
    RHS1      c1        2.9477104658374973e+01
    RHS1      c2        7.2958763359699361e+00
    RHS1      c3        7.2300289166921017e+00
    RHS1      c_key_upper  4.2202224268470808e+01
    RHS1      c_key_lower  2.1101112134235404e+01
    RHS1      _chain_constr_1  10
    RHS1      _chain_constr_2  10
    RHS1      _chain_constr_3  10
    RHS1      _chain_cycle  10
BOUNDS
 UP BND1      x0        10
 UP BND1      x1        10
 UP BND1      x2        10
 UP BND1      x3        10
 UP BND1      x4        10
 UP BND1      _chain_var_0  100
 UP BND1      _chain_var_1  100
 UP BND1      _chain_var_2  100
 UP BND1      _chain_var_3  100
ENDATA
